3
5
0 548 618 571 110 
548 0 369 445 525 
618 369 0 119 662 
571 445 119 0 632 
110 525 662 632 0 
0 266 544 798 768 
266 0 432 886 821 
544 432 0 603 497 
798 886 603 0 124 
768 821 497 124 0 
0 689 467 300 149 
689 0 606 437 679 
467 606 0 276 589 
300 437 276 0 369 
149 679 589 369 0 
